p cnf 12 50 
-3 -4 1 0
-10 -11 3 0
5 4 3 0
5 -6 -2 0
11 -12 -9 0
9 7 3 0
-8 -7 12 0
-5 -12 4 0
-10 12 -5 0
1 5 6 0
-8 1 -12 0
10 -2 12 0
-3 1 7 0
4 -11 -7 0
-10 -1 9 0
4 -8 -9 0
-11 -5 8 0
4 2 10 0
-5 -2 10 0
-2 -12 3 0
-6 -7 -12 0
-8 -3 -12 0
5 9 -6 0
3 6 2 0
-4 2 8 0
-1 -5 11 0
-9 -10 -5 0
12 10 -3 0
7 2 -9 0
-8 12 6 0
1 11 8 0
-4 3 -11 0
6 -1 -11 0
4 7 -9 0
11 -7 -8 0
2 -7 -5 0
-6 -1 4 0
7 -1 -4 0
11 3 10 0
10 -2 7 0
7 -10 -4 0
-1 -3 7 0
8 -11 12 0
-1 2 12 0
5 -4 1 0
-6 12 2 0
-10 -7 8 0
2 -3 -8 0
-10 -3 -1 0
-10 1 -8 0
